p tw 116 131
1 2
2 29
3 14
4 5
5 6
5 19
6 7
7 8
8 9
8 16
9 10
10 11
11 12
12 13
13 15
14 21
15 16
16 17
17 18
18 116
19 20
21 22
22 23
22 27
23 24
24 25
25 26
26 27
27 28
28 30
29 40
29 84
30 31
31 32
32 33
33 34
34 35
35 36
36 37
37 38
38 39
39 41
40 51
41 42
42 43
42 70
43 44
44 45
44 48
45 46
46 47
47 48
48 49
49 50
50 52
50 58
51 62
52 53
53 54
54 55
55 56
55 58
56 57
57 58
58 59
59 60
60 61
61 63
62 73
63 64
64 65
65 66
65 36
66 67
67 68
68 69
69 36
70 71
71 72
72 74
73 84
74 75
75 76
76 77
77 78
78 79
78 99
79 80
80 81
81 82
82 83
83 85
83 96
84 95
85 86
86 87
86 96
87 88
88 89
89 90
90 91
91 92
91 96
92 93
93 94
94 96
95 106
96 97
97 98
98 76
99 100
100 101
101 102
102 103
102 113
103 104
104 105
105 107
106 3
107 108
107 113
108 109
109 110
110 111
110 113
111 112
112 19
113 114
114 115
115 116
116 4
